WARNING: for repeatability, setting FPU to use double precision
============================[ Problem Statistics ]=============================
|                                                                             |
|  Number of variables:         16278                                         |
|  Number of clauses:             988                                         |
|  Parse time:                   0.00 s                                       |
|                                                                             |
c ============================[ Search Statistics ]==============================
c | Conflicts |          ORIGINAL         |          LEARNT          | Progress |
c |           |    Vars  Clauses Literals |    Limit  Clauses Lit/Cl |          |
c ===============================================================================
c Switched to VSIDS.
c Switched to LRB.
c ===============================================================================
restarts                  : 865
conflicts                 : 694978         (7421 /sec)
decisions                 : 30215466       (0.00 % random) (322625 /sec)
propagations              : 78632889       (839601 /sec)
conflict literals         : 12651247       (26.68 % deleted)

conflicts w/ DIP found    : 445873         (64.16 % of conflicts)
conflicts w/ dangerous DIP: 0              (0.00 % of conflicts)
conflicts w/ DIP-learning : 8790           (1.26 % of conflicts)
decisions on ext vars     : 147484         (0.49 % of decisions)
total ext vars            : 632         
tried delete ext vars     : 0           
deleted ext vars          : 0           
max ext vars              : 632         

Memory used               : 61.00 MB
CPU time                  : 93.6551 s
DIP computation time      : 3.37064 s (3.60 % of total time)
ER_sel time               : 0.629703 s
ER_add time               : 0.002193 s
ER_delC time              : 0 s
ER_delV time              : 0 s
ER_sub time               : 0.811438 s
ER_stat time              : 0 s

UNSATISFIABLE
